(set-logic ALL)
(declare-const k Int)
(declare-fun s () (_ BitVec k))
(declare-fun t () (_ BitVec k))
(assert (distinct (bvule s (bvadd s (bvand t (_ bv1 k)))) (= s (bvmul s (bvand t (_ bv1 k))))))
(check-sat)
